DIMACS2
10 69 136 45 75 0 49 47 142 11 28
p edge 160 1239
e 0 138 23.0
e 0 57 48.0
e 0 82 10.0
e 0 78 20.0
e 0 134 49.0
e 0 117 33.0
e 0 35 38.0
e 0 156 35.0
e 0 69 15.0
e 0 11 5.0
e 0 45 34.0
e 0 28 48.0
e 1 15 1.0
e 1 104 1.0
e 1 100 1.0
e 1 83 2.0
e 1 6 1.0
e 1 43 1.0
e 1 12 2.0
e 1 119 2.0
e 2 122 2.0
e 2 76 1.0
e 2 17 1.0
e 2 15 1.0
e 2 94 1.0
e 2 116 1.0
e 2 46 1.0
e 2 109 2.0
e 3 86 2.0
e 3 147 1.0
e 3 110 2.0
e 3 41 1.0
e 3 131 1.0
e 3 151 2.0
e 3 103 1.0
e 3 72 1.0
e 4 123 1.0
e 4 83 1.0
e 4 106 2.0
e 4 43 2.0
e 4 45 32.0
e 4 37 1.0
e 4 59 2.0
e 4 120 1.0
e 5 59 1.0
e 5 62 1.0
e 5 86 1.0
e 5 75 5.0
e 5 58 1.0
e 5 135 1.0
e 5 35 2.0
e 5 37 2.0
e 6 76 1.0
e 6 54 1.0
e 6 99 1.0
e 6 9 1.0
e 6 141 1.0
e 6 158 1.0
e 6 100 1.0
e 6 145 1.0
e 7 25 2.0
e 7 144 1.0
e 7 46 2.0
e 7 108 1.0
e 7 118 1.0
e 7 125 1.0
e 7 63 1.0
e 8 35 1.0
e 8 28 9.0
e 8 113 1.0
e 8 48 1.0
e 8 75 25.0
e 8 30 1.0
e 8 98 1.0
e 8 33 2.0
e 9 126 1.0
e 9 155 1.0
e 9 96 1.0
e 9 149 1.0
e 9 32 1.0
e 9 54 1.0
e 9 151 1.0
e 9 34 1.0
e 10 123 1.0
e 10 66 1.0
e 10 140 1.0
e 10 98 1.0
e 10 50 1.0
e 10 120 2.0
e 10 150 1.0
e 10 58 1.0
e 11 41 6.0
e 11 83 45.0
e 11 137 23.0
e 11 15 20.0
e 11 65 9.0
e 11 98 17.0
e 11 149 36.0
e 11 39 33.0
e 11 136 14.0
e 11 45 11.0
e 11 28 37.0
e 12 113 1.0
e 12 131 1.0
e 12 144 2.0
e 12 111 1.0
e 12 118 3.0
e 12 24 1.0
e 12 123 2.0
e 12 50 1.0
e 13 39 1.0
e 13 68 1.0
e 13 50 1.0
e 13 135 2.0
e 13 70 1.0
e 13 105 1.0
e 13 32 2.0
e 13 151 1.0
e 14 130 1.0
e 14 27 2.0
e 14 83 1.0
e 14 36 1.0
e 14 122 2.0
e 14 148 1.0
e 14 117 1.0
e 14 87 1.0
e 15 141 1.0
e 15 152 1.0
e 15 78 1.0
e 15 153 2.0
e 15 70 1.0
e 15 30 1.0
e 15 134 1.0
e 15 46 1.0
e 16 9 1.0
e 16 121 1.0
e 16 55 1.0
e 16 61 1.0
e 16 139 1.0
e 16 120 1.0
e 16 18 1.0
e 17 57 1.0
e 17 47 34.0
e 17 44 2.0
e 17 14 1.0
e 17 112 2.0
e 17 89 1.0
e 17 152 1.0
e 18 135 1.0
e 18 5 1.0
e 18 133 1.0
e 18 3 1.0
e 18 101 1.0
e 18 56 1.0
e 18 156 1.0
e 18 42 1.0
e 19 149 1.0
e 19 118 1.0
e 19 69 3.0
e 19 115 1.0
e 19 16 1.0
e 19 119 1.0
e 19 37 2.0
e 19 140 1.0
e 20 81 1.0
e 20 95 1.0
e 20 26 1.0
e 20 150 1.0
e 20 8 2.0
e 20 136 37.0
e 20 122 2.0
e 20 48 1.0
e 21 106 1.0
e 21 62 1.0
e 21 66 1.0
e 21 151 1.0
e 21 52 1.0
e 21 9 1.0
e 21 103 1.0
e 22 156 1.0
e 22 78 1.0
e 22 38 1.0
e 22 87 1.0
e 22 98 1.0
e 22 79 1.0
e 22 111 1.0
e 22 137 1.0
e 23 32 1.0
e 23 145 1.0
e 23 10 1.0
e 23 98 1.0
e 23 29 2.0
e 23 33 2.0
e 23 134 1.0
e 23 142 3.0
e 24 4 1.0
e 24 31 1.0
e 24 101 1.0
e 24 72 1.0
e 24 64 1.0
e 24 53 2.0
e 24 71 1.0
e 24 98 1.0
e 25 18 2.0
e 25 45 28.0
e 25 86 1.0
e 25 43 3.0
e 25 89 1.0
e 25 5 1.0
e 25 130 1.0
e 25 44 1.0
e 26 107 1.0
e 26 149 1.0
e 26 24 2.0
e 26 144 2.0
e 26 124 2.0
e 26 90 1.0
e 26 85 1.0
e 26 37 1.0
e 27 1 1.0
e 27 119 1.0
e 27 67 2.0
e 27 129 1.0
e 27 45 2.0
e 27 133 1.0
e 27 56 1.0
e 27 113 1.0
e 28 75 49.0
e 28 133 49.0
e 28 54 21.0
e 28 148 21.0
e 28 49 10.0
e 28 125 43.0
e 28 52 48.0
e 28 35 29.0
e 28 47 40.0
e 28 136 48.0
e 29 82 1.0
e 29 114 1.0
e 29 91 1.0
e 29 34 2.0
e 29 70 1.0
e 29 55 1.0
e 29 50 1.0
e 29 90 1.0
e 30 17 2.0
e 30 43 1.0
e 30 156 1.0
e 30 140 2.0
e 30 126 1.0
e 30 122 2.0
e 30 49 29.0
e 30 56 2.0
e 31 127 1.0
e 31 73 1.0
e 31 119 2.0
e 31 74 1.0
e 31 140 1.0
e 31 79 2.0
e 31 82 1.0
e 31 67 2.0
e 32 54 2.0
e 32 103 1.0
e 32 33 2.0
e 32 129 1.0
e 32 24 2.0
e 32 89 1.0
e 32 14 1.0
e 32 34 1.0
e 33 149 1.0
e 33 150 1.0
e 33 49 4.0
e 33 120 3.0
e 33 118 1.0
e 33 56 1.0
e 33 133 1.0
e 33 109 1.0
e 34 49 39.0
e 34 67 1.0
e 34 138 1.0
e 34 87 1.0
e 34 133 1.0
e 34 42 1.0
e 34 72 1.0
e 34 128 2.0
e 35 119 1.0
e 35 102 1.0
e 35 33 2.0
e 35 149 1.0
e 35 91 1.0
e 35 3 1.0
e 35 138 1.0
e 35 108 1.0
e 36 127 1.0
e 36 26 1.0
e 36 98 1.0
e 36 7 1.0
e 36 23 2.0
e 36 62 1.0
e 36 116 1.0
e 36 37 1.0
e 37 54 1.0
e 37 119 1.0
e 37 124 1.0
e 37 100 1.0
e 37 88 1.0
e 37 109 1.0
e 37 113 1.0
e 37 83 2.0
e 38 18 2.0
e 38 73 2.0
e 38 131 1.0
e 38 71 1.0
e 38 124 2.0
e 38 98 1.0
e 38 58 1.0
e 38 128 1.0
e 39 146 1.0
e 39 148 2.0
e 39 56 1.0
e 39 15 2.0
e 39 95 3.0
e 39 58 2.0
e 39 112 1.0
e 39 114 1.0
e 40 9 2.0
e 40 99 2.0
e 40 78 1.0
e 40 102 1.0
e 40 110 1.0
e 40 37 1.0
e 40 65 1.0
e 40 52 2.0
e 41 48 1.0
e 41 90 1.0
e 41 47 23.0
e 41 94 1.0
e 41 139 2.0
e 41 33 2.0
e 41 142 46.0
e 41 73 1.0
e 42 121 1.0
e 42 157 1.0
e 42 83 1.0
e 42 58 1.0
e 42 56 2.0
e 42 113 1.0
e 42 110 1.0
e 42 155 1.0
e 43 99 1.0
e 43 146 1.0
e 43 47 40.0
e 43 77 1.0
e 43 67 1.0
e 43 32 1.0
e 43 152 1.0
e 44 92 3.0
e 44 134 1.0
e 44 128 2.0
e 44 90 1.0
e 44 93 1.0
e 44 4 1.0
e 44 101 1.0
e 44 133 1.0
e 45 62 9.0
e 45 155 28.0
e 45 117 18.0
e 45 90 44.0
e 45 119 46.0
e 45 47 23.0
e 45 148 31.0
e 45 65 49.0
e 46 45 45.0
e 46 9 1.0
e 46 144 1.0
e 46 125 2.0
e 46 6 2.0
e 46 145 3.0
e 46 84 1.0
e 46 92 1.0
e 47 56 11.0
e 47 35 14.0
e 47 155 3.0
e 47 61 1.0
e 47 32 30.0
e 47 98 12.0
e 47 54 26.0
e 47 99 1.0
e 48 126 2.0
e 48 25 1.0
e 48 114 1.0
e 48 148 1.0
e 48 14 1.0
e 48 105 2.0
e 48 154 1.0
e 48 141 1.0
e 49 65 19.0
e 49 75 39.0
e 49 92 19.0
e 49 61 44.0
e 49 85 27.0
e 49 40 40.0
e 49 111 34.0
e 49 16 16.0
e 50 109 1.0
e 50 85 1.0
e 50 4 1.0
e 50 48 1.0
e 50 111 1.0
e 50 30 2.0
e 50 46 2.0
e 50 25 2.0
e 51 16 1.0
e 51 1 1.0
e 51 156 1.0
e 51 27 1.0
e 51 127 1.0
e 51 80 1.0
e 51 41 1.0
e 51 133 1.0
e 52 9 1.0
e 52 158 2.0
e 52 132 1.0
e 52 114 2.0
e 52 22 2.0
e 52 76 1.0
e 52 140 2.0
e 52 147 1.0
e 53 151 2.0
e 53 18 1.0
e 53 117 1.0
e 53 52 1.0
e 53 142 14.0
e 53 36 2.0
e 53 89 1.0
e 53 31 1.0
e 54 62 1.0
e 54 3 1.0
e 54 66 1.0
e 54 122 1.0
e 54 73 1.0
e 54 64 1.0
e 54 60 1.0
e 54 89 1.0
e 55 100 1.0
e 55 88 1.0
e 55 84 2.0
e 55 44 2.0
e 55 142 22.0
e 55 87 2.0
e 55 113 2.0
e 56 82 1.0
e 56 88 1.0
e 56 89 1.0
e 56 55 1.0
e 56 15 1.0
e 56 135 1.0
e 56 91 1.0
e 57 156 1.0
e 57 25 2.0
e 57 69 3.0
e 57 132 2.0
e 57 2 1.0
e 57 121 1.0
e 57 95 1.0
e 57 151 1.0
e 58 88 1.0
e 58 22 1.0
e 58 49 37.0
e 58 25 1.0
e 58 81 1.0
e 58 79 1.0
e 58 136 37.0
e 58 24 1.0
e 59 113 2.0
e 59 105 2.0
e 59 145 1.0
e 59 119 3.0
e 59 86 1.0
e 59 41 1.0
e 60 126 1.0
e 60 92 1.0
e 60 156 1.0
e 60 94 1.0
e 60 14 1.0
e 60 103 1.0
e 60 22 1.0
e 60 36 1.0
e 61 156 1.0
e 61 119 1.0
e 61 127 1.0
e 61 131 1.0
e 61 138 1.0
e 61 53 2.0
e 61 81 2.0
e 61 57 1.0
e 62 29 2.0
e 62 108 2.0
e 62 153 1.0
e 62 52 2.0
e 62 129 1.0
e 62 80 1.0
e 62 147 1.0
e 63 81 2.0
e 63 65 1.0
e 63 69 36.0
e 63 34 1.0
e 63 105 1.0
e 63 139 2.0
e 63 136 42.0
e 63 108 2.0
e 64 15 1.0
e 64 100 1.0
e 64 43 1.0
e 64 51 1.0
e 64 148 1.0
e 64 32 1.0
e 64 40 1.0
e 64 46 2.0
e 65 57 1.0
e 65 158 1.0
e 65 47 47.0
e 65 146 1.0
e 65 16 1.0
e 65 127 1.0
e 65 126 1.0
e 65 69 24.0
e 66 77 2.0
e 66 40 2.0
e 66 108 1.0
e 66 12 2.0
e 66 155 1.0
e 66 94 1.0
e 66 134 1.0
e 66 30 2.0
e 67 62 1.0
e 67 8 1.0
e 67 152 1.0
e 67 132 2.0
e 67 66 2.0
e 67 142 25.0
e 67 119 1.0
e 67 130 1.0
e 68 147 1.0
e 68 102 1.0
e 68 21 1.0
e 68 156 1.0
e 68 116 1.0
e 68 135 2.0
e 68 111 2.0
e 68 88 1.0
e 69 59 38.0
e 69 156 1.0
e 69 146 43.0
e 69 28 20.0
e 69 149 34.0
e 69 60 33.0
e 69 147 47.0
e 69 97 26.0
e 70 113 1.0
e 70 32 2.0
e 70 133 1.0
e 70 115 1.0
e 70 140 2.0
e 70 55 1.0
e 70 129 1.0
e 70 152 1.0
e 71 153 1.0
e 71 144 1.0
e 71 18 1.0
e 71 89 1.0
e 71 3 1.0
e 71 129 1.0
e 71 127 2.0
e 71 92 1.0
e 72 87 2.0
e 72 138 1.0
e 72 112 1.0
e 72 69 29.0
e 72 106 1.0
e 72 128 1.0
e 72 58 1.0
e 72 158 2.0
e 73 111 1.0
e 73 131 1.0
e 73 53 1.0
e 73 158 1.0
e 73 37 1.0
e 73 157 1.0
e 73 61 1.0
e 73 36 1.0
e 74 70 1.0
e 74 59 1.0
e 74 15 1.0
e 74 133 1.0
e 74 41 1.0
e 74 2 1.0
e 75 103 15.0
e 75 109 20.0
e 75 15 43.0
e 75 35 48.0
e 75 16 23.0
e 75 133 48.0
e 75 26 34.0
e 75 69 14.0
e 76 130 1.0
e 76 107 1.0
e 76 33 1.0
e 76 43 1.0
e 76 46 1.0
e 76 82 1.0
e 76 148 1.0
e 77 118 3.0
e 77 86 2.0
e 77 127 2.0
e 77 150 2.0
e 77 10 2.0
e 77 21 1.0
e 77 144 1.0
e 77 11 44.0
e 78 20 3.0
e 78 42 1.0
e 78 43 1.0
e 78 145 1.0
e 78 62 2.0
e 78 97 2.0
e 78 72 2.0
e 78 14 2.0
e 79 117 1.0
e 79 78 1.0
e 79 83 1.0
e 79 80 2.0
e 79 67 1.0
e 79 116 1.0
e 79 75 42.0
e 79 127 1.0
e 80 150 1.0
e 80 42 1.0
e 80 53 3.0
e 80 147 1.0
e 80 134 1.0
e 80 131 1.0
e 80 22 1.0
e 81 69 15.0
e 81 59 1.0
e 81 115 2.0
e 81 88 2.0
e 81 132 2.0
e 81 26 2.0
e 81 16 2.0
e 81 143 2.0
e 82 148 1.0
e 82 38 2.0
e 82 51 1.0
e 82 2 1.0
e 82 99 1.0
e 82 145 1.0
e 82 149 1.0
e 82 91 1.0
e 83 158 1.0
e 83 126 2.0
e 83 125 2.0
e 83 23 1.0
e 83 53 2.0
e 83 36 1.0
e 84 96 1.0
e 84 82 1.0
e 84 20 2.0
e 84 70 1.0
e 84 116 1.0
e 84 51 1.0
e 84 149 1.0
e 84 129 1.0
e 85 113 1.0
e 85 136 42.0
e 85 127 2.0
e 85 16 1.0
e 85 44 1.0
e 85 118 1.0
e 85 48 1.0
e 86 64 1.0
e 86 142 4.0
e 86 70 2.0
e 86 96 1.0
e 86 62 2.0
e 86 43 1.0
e 86 34 2.0
e 87 128 2.0
e 87 81 1.0
e 87 10 1.0
e 87 156 1.0
e 87 103 1.0
e 87 67 2.0
e 87 33 2.0
e 87 51 1.0
e 88 101 1.0
e 88 24 1.0
e 88 110 1.0
e 88 128 2.0
e 88 44 1.0
e 88 109 1.0
e 88 71 1.0
e 89 68 1.0
e 89 102 1.0
e 89 12 1.0
e 89 115 1.0
e 89 119 2.0
e 89 5 2.0
e 89 94 1.0
e 90 21 2.0
e 90 130 1.0
e 90 30 2.0
e 90 59 1.0
e 90 19 1.0
e 90 51 1.0
e 90 117 1.0
e 91 4 1.0
e 91 40 1.0
e 91 146 2.0
e 91 111 1.0
e 91 58 1.0
e 91 96 3.0
e 91 142 37.0
e 91 102 3.0
e 92 144 2.0
e 92 65 1.0
e 92 153 2.0
e 92 37 1.0
e 92 30 2.0
e 92 8 1.0
e 93 121 1.0
e 93 45 35.0
e 93 36 1.0
e 93 56 2.0
e 93 76 1.0
e 93 66 1.0
e 93 5 1.0
e 93 136 11.0
e 94 104 1.0
e 94 31 1.0
e 94 83 1.0
e 94 100 1.0
e 94 120 1.0
e 94 84 1.0
e 94 108 1.0
e 94 93 1.0
e 95 114 2.0
e 95 118 2.0
e 95 93 2.0
e 95 24 1.0
e 95 61 1.0
e 95 59 2.0
e 95 46 1.0
e 95 156 2.0
e 96 106 2.0
e 96 29 1.0
e 96 156 1.0
e 96 154 1.0
e 96 76 1.0
e 96 119 1.0
e 96 135 1.0
e 96 141 1.0
e 97 112 1.0
e 97 102 1.0
e 97 74 1.0
e 97 50 1.0
e 97 108 3.0
e 97 71 1.0
e 97 147 2.0
e 97 51 1.0
e 98 146 1.0
e 98 73 1.0
e 98 74 1.0
e 98 91 1.0
e 98 35 1.0
e 98 53 2.0
e 98 50 1.0
e 98 44 1.0
e 99 20 2.0
e 99 138 1.0
e 99 91 2.0
e 99 49 34.0
e 99 158 1.0
e 99 128 2.0
e 99 104 1.0
e 99 18 1.0
e 100 0 16.0
e 100 140 1.0
e 100 89 1.0
e 100 120 1.0
e 100 57 1.0
e 100 134 1.0
e 100 28 13.0
e 100 13 1.0
e 101 83 1.0
e 101 108 1.0
e 101 76 1.0
e 101 152 1.0
e 101 89 1.0
e 101 109 1.0
e 101 20 2.0
e 101 60 1.0
e 102 47 48.0
e 102 36 1.0
e 102 69 1.0
e 102 72 1.0
e 102 98 1.0
e 103 97 1.0
e 103 101 1.0
e 103 131 1.0
e 103 30 2.0
e 103 82 1.0
e 103 11 18.0
e 103 44 1.0
e 103 78 1.0
e 104 153 2.0
e 104 132 1.0
e 104 59 1.0
e 104 103 1.0
e 104 17 2.0
e 104 110 2.0
e 104 27 2.0
e 104 10 1.0
e 105 151 1.0
e 105 45 28.0
e 105 120 2.0
e 105 143 1.0
e 105 97 1.0
e 105 126 1.0
e 105 84 1.0
e 105 28 14.0
e 106 154 1.0
e 106 113 2.0
e 106 19 1.0
e 106 80 2.0
e 106 152 3.0
e 106 46 2.0
e 106 10 1.0
e 106 11 23.0
e 107 104 1.0
e 107 53 1.0
e 107 39 3.0
e 107 2 1.0
e 107 93 1.0
e 107 3 1.0
e 107 117 1.0
e 107 108 1.0
e 108 156 1.0
e 108 20 1.0
e 108 69 14.0
e 108 30 1.0
e 108 99 1.0
e 108 73 1.0
e 108 137 1.0
e 108 61 2.0
e 109 93 2.0
e 109 139 3.0
e 109 155 1.0
e 109 110 1.0
e 109 64 1.0
e 109 30 1.0
e 109 137 1.0
e 110 132 2.0
e 110 22 1.0
e 110 71 1.0
e 110 112 2.0
e 110 31 2.0
e 110 14 2.0
e 110 0 27.0
e 110 100 2.0
e 111 117 3.0
e 111 27 2.0
e 111 13 2.0
e 111 37 1.0
e 111 5 2.0
e 111 135 1.0
e 111 149 2.0
e 111 112 1.0
e 112 140 2.0
e 112 24 1.0
e 112 126 1.0
e 112 146 2.0
e 112 106 1.0
e 112 101 1.0
e 112 75 18.0
e 113 123 1.0
e 113 46 1.0
e 113 40 1.0
e 113 21 1.0
e 113 18 1.0
e 113 65 1.0
e 114 99 1.0
e 114 110 2.0
e 114 157 2.0
e 114 9 1.0
e 114 14 1.0
e 114 43 1.0
e 114 68 1.0
e 115 44 1.0
e 115 62 1.0
e 115 73 2.0
e 115 55 1.0
e 115 111 1.0
e 115 31 1.0
e 115 29 1.0
e 115 17 1.0
e 116 102 1.0
e 116 143 2.0
e 116 119 1.0
e 116 121 1.0
e 116 49 21.0
e 116 118 1.0
e 116 56 2.0
e 117 70 1.0
e 117 137 1.0
e 117 143 1.0
e 117 127 2.0
e 117 153 1.0
e 117 138 1.0
e 118 91 1.0
e 118 22 1.0
e 118 88 1.0
e 118 36 1.0
e 118 59 3.0
e 118 15 1.0
e 118 70 1.0
e 119 114 2.0
e 119 60 2.0
e 119 55 1.0
e 119 120 2.0
e 119 16 1.0
e 119 93 2.0
e 119 129 2.0
e 120 76 1.0
e 120 38 1.0
e 120 11 39.0
e 120 141 2.0
e 120 83 3.0
e 120 68 1.0
e 120 92 3.0
e 121 142 5.0
e 121 68 1.0
e 121 95 2.0
e 121 45 35.0
e 121 4 1.0
e 121 129 1.0
e 121 12 1.0
e 121 60 1.0
e 122 52 1.0
e 122 93 1.0
e 122 49 44.0
e 122 98 1.0
e 122 78 1.0
e 122 22 1.0
e 122 158 2.0
e 122 141 2.0
e 123 72 2.0
e 123 135 1.0
e 123 121 1.0
e 123 129 1.0
e 123 1 1.0
e 123 55 1.0
e 123 118 1.0
e 123 84 1.0
e 124 104 1.0
e 124 41 1.0
e 124 90 1.0
e 124 44 1.0
e 124 84 1.0
e 124 45 42.0
e 124 49 42.0
e 124 57 1.0
e 125 8 1.0
e 125 65 1.0
e 125 3 1.0
e 125 111 2.0
e 125 75 42.0
e 125 145 1.0
e 125 52 2.0
e 125 128 2.0
e 126 78 2.0
e 126 45 37.0
e 126 133 1.0
e 126 69 41.0
e 126 134 1.0
e 126 89 1.0
e 126 3 1.0
e 127 158 2.0
e 127 157 2.0
e 127 11 49.0
e 127 133 1.0
e 127 97 2.0
e 127 68 2.0
e 127 121 2.0
e 127 120 1.0
e 128 142 26.0
e 128 8 1.0
e 128 151 1.0
e 128 137 1.0
e 128 106 1.0
e 128 70 2.0
e 128 98 2.0
e 128 107 2.0
e 129 46 1.0
e 129 109 1.0
e 129 15 1.0
e 129 21 1.0
e 129 42 1.0
e 129 133 1.0
e 129 37 1.0
e 129 131 1.0
e 130 101 1.0
e 130 106 1.0
e 130 134 1.0
e 130 52 2.0
e 130 145 2.0
e 130 5 1.0
e 130 26 1.0
e 131 63 1.0
e 131 56 1.0
e 131 6 2.0
e 131 84 2.0
e 131 35 3.0
e 131 98 1.0
e 131 153 1.0
e 131 47 18.0
e 132 133 1.0
e 132 76 1.0
e 132 122 2.0
e 132 127 2.0
e 132 107 1.0
e 132 73 1.0
e 132 124 1.0
e 132 70 2.0
e 133 19 1.0
e 133 119 1.0
e 133 156 1.0
e 133 7 1.0
e 133 61 1.0
e 133 6 1.0
e 133 142 6.0
e 134 99 1.0
e 134 109 2.0
e 134 119 1.0
e 134 75 43.0
e 134 85 1.0
e 134 108 2.0
e 135 17 1.0
e 135 39 1.0
e 135 99 2.0
e 135 0 37.0
e 135 48 2.0
e 135 110 2.0
e 135 73 1.0
e 135 102 1.0
e 136 95 16.0
e 136 60 7.0
e 136 102 24.0
e 136 61 39.0
e 136 155 42.0
e 136 132 35.0
e 136 43 2.0
e 137 38 2.0
e 137 47 9.0
e 137 0 36.0
e 137 42 1.0
e 137 4 1.0
e 137 58 1.0
e 137 118 1.0
e 137 93 1.0
e 138 150 1.0
e 138 52 1.0
e 138 151 1.0
e 138 63 1.0
e 138 136 31.0
e 138 67 1.0
e 138 105 1.0
e 138 16 1.0
e 139 35 2.0
e 139 101 2.0
e 139 88 1.0
e 139 26 2.0
e 139 142 7.0
e 139 127 1.0
e 139 39 2.0
e 139 15 1.0
e 140 151 1.0
e 140 150 1.0
e 140 76 1.0
e 140 104 1.0
e 140 121 1.0
e 140 94 2.0
e 140 27 1.0
e 140 136 40.0
e 141 147 2.0
e 141 10 1.0
e 141 38 1.0
e 141 156 1.0
e 141 98 1.0
e 141 1 1.0
e 141 29 1.0
e 142 35 33.0
e 142 82 28.0
e 142 12 14.0
e 142 115 4.0
e 142 48 10.0
e 142 38 40.0
e 142 157 35.0
e 142 152 32.0
e 143 66 1.0
e 143 14 1.0
e 143 89 1.0
e 143 8 1.0
e 143 93 1.0
e 143 77 2.0
e 143 2 1.0
e 143 33 2.0
e 144 152 1.0
e 144 84 1.0
e 144 133 1.0
e 144 54 1.0
e 144 78 1.0
e 144 57 1.0
e 144 17 1.0
e 144 103 1.0
e 145 62 1.0
e 145 107 1.0
e 145 47 14.0
e 145 141 2.0
e 145 129 2.0
e 145 10 1.0
e 145 7 1.0
e 145 151 1.0
e 146 19 1.0
e 146 24 1.0
e 146 85 1.0
e 146 64 1.0
e 146 127 1.0
e 146 49 21.0
e 146 130 1.0
e 146 70 1.0
e 147 82 2.0
e 147 81 1.0
e 147 36 1.0
e 147 58 1.0
e 147 102 2.0
e 147 137 1.0
e 147 134 2.0
e 147 140 1.0
e 148 67 1.0
e 148 6 1.0
e 148 42 1.0
e 148 15 1.0
e 148 61 1.0
e 148 8 1.0
e 148 72 2.0
e 148 41 1.0
e 149 89 1.0
e 149 143 1.0
e 149 129 1.0
e 149 76 1.0
e 149 123 1.0
e 149 48 1.0
e 149 117 1.0
e 149 16 1.0
e 150 44 1.0
e 150 129 1.0
e 150 3 1.0
e 150 98 1.0
e 150 112 2.0
e 150 70 1.0
e 150 7 1.0
e 151 29 1.0
e 151 72 1.0
e 151 1 2.0
e 151 125 1.0
e 151 30 1.0
e 151 0 48.0
e 152 134 1.0
e 152 30 2.0
e 152 45 30.0
e 152 137 1.0
e 152 21 1.0
e 152 121 1.0
e 152 129 1.0
e 152 36 1.0
e 153 38 1.0
e 153 126 1.0
e 153 9 1.0
e 153 154 1.0
e 153 150 1.0
e 153 75 9.0
e 153 90 1.0
e 153 128 1.0
e 154 136 11.0
e 154 129 2.0
e 154 79 2.0
e 154 81 1.0
e 154 4 1.0
e 154 92 2.0
e 154 8 1.0
e 154 141 1.0
e 155 90 1.0
e 155 72 1.0
e 155 23 1.0
e 155 32 1.0
e 155 38 2.0
e 155 4 1.0
e 155 70 1.0
e 156 135 2.0
e 156 143 1.0
e 156 142 4.0
e 156 3 1.0
e 156 4 1.0
e 156 155 1.0
e 156 21 1.0
e 156 138 1.0
e 157 59 1.0
e 157 107 2.0
e 157 52 1.0
e 157 151 1.0
e 157 66 2.0
e 157 124 1.0
e 157 154 1.0
e 157 79 2.0
e 158 20 1.0
e 158 88 1.0
e 158 32 1.0
e 158 29 1.0
e 158 96 1.0
e 158 48 1.0
e 158 109 1.0
e 159 122 1.0
e 159 50 1.0
e 159 96 1.0
e 159 134 1.0
e 159 156 1.0
e 159 149 1.0
e 159 21 1.0
